pure_adt/tip2015_nat_acc_alt_mul_assoc.smt2
(set-logic HORN)
(declare-datatypes ((Nat_209 0)) (((zero_22 ) (succ_22 (p_61 Nat_209)))))
(declare-fun diseqNat_209 (Nat_209 Nat_209) Bool)
(declare-fun p_62 (Nat_209 Nat_209) Bool)
(declare-fun iszero_22 (Nat_209) Bool)
(declare-fun issucc_22 (Nat_209) Bool)
(assert (forall ((x_15068 Nat_209))
	(p_62 x_15068 (succ_22 x_15068))))
(assert (iszero_22 zero_22))
(assert (forall ((x_15070 Nat_209))
	(issucc_22 (succ_22 x_15070))))
(assert (forall ((x_15071 Nat_209))
	(diseqNat_209 zero_22 (succ_22 x_15071))))
(assert (forall ((x_15072 Nat_209))
	(diseqNat_209 (succ_22 x_15072) zero_22)))
(assert (forall ((x_15073 Nat_209) (x_15074 Nat_209))
	(=> (diseqNat_209 x_15073 x_15074)
	    (diseqNat_209 (succ_22 x_15073) (succ_22 x_15074)))))
(declare-fun accplus_2 (Nat_209 Nat_209 Nat_209) Bool)
(assert (forall ((x_15053 Nat_209) (z_626 Nat_209) (y_585 Nat_209))
	(=> (accplus_2 x_15053 z_626 (succ_22 y_585))
	    (accplus_2 x_15053 (succ_22 z_626) y_585))))
(assert (forall ((x_15055 Nat_209))
	(accplus_2 x_15055 zero_22 x_15055)))
(declare-fun accaltmul_1 (Nat_209 Nat_209 Nat_209) Bool)
(assert (forall ((x_15056 Nat_209) (x_15057 Nat_209) (x_15058 Nat_209) (x_15051 Nat_209) (z_627 Nat_209))
	(=>	(and (accaltmul_1 x_15057 z_627 x_15051)
			(accplus_2 x_15058 x_15051 x_15057)
			(accplus_2 x_15056 (succ_22 z_627) x_15058))
		(accaltmul_1 x_15056 (succ_22 z_627) (succ_22 x_15051)))))
(assert (forall ((z_627 Nat_209))
	(accaltmul_1 zero_22 (succ_22 z_627) zero_22)))
(assert (forall ((y_586 Nat_209))
	(accaltmul_1 zero_22 zero_22 y_586)))
(assert (forall ((x_15062 Nat_209) (x_15063 Nat_209) (x_15064 Nat_209) (x_15065 Nat_209) (x_15052 Nat_209) (y_587 Nat_209) (z_628 Nat_209))
	(=>	(and true
			(diseqNat_209 x_15063 x_15065)
			(accaltmul_1 x_15062 y_587 z_628)
			(accaltmul_1 x_15063 x_15052 x_15062)
			(accaltmul_1 x_15064 x_15052 y_587)
			(accaltmul_1 x_15065 x_15064 z_628))
		false)))
(check-sat)
